benchmark/results/graph__15-1000-0.10-04_16/error_log/graph__15-1000-0.10-04_16_Quinton_Benders_primal_sub_ERRORLOG.lp
\ This file has been generated by DOcplex
\ ENCODING=ISO-8859-1
\Problem name: Quinton Benders_primal_sub

Maximize
 obj: tau
Subject To
 c1: tau <= 0.000852514919
 c2: y_a0_proc_0 + y_a0_proc_1 + y_a0_proc_2 + y_a0_proc_3 - tau = 0
 c3: y_a0_proc_0 <= 0
 c4: y_a0_proc_1 <= 0
 c5: y_a0_proc_2 <= 0
 c6: y_a0_proc_3 <= 1
 c7: tau <= 0.001322751323
 c8: y_a1_proc_0 + y_a1_proc_1 + y_a1_proc_2 - tau = 0
 c9: y_a1_proc_0 <= 0
 c10: y_a1_proc_1 <= 1
 c11: y_a1_proc_2 <= 0
 c12: tau <= 0.000824402308
 c13: y_a2_proc_0 + y_a2_proc_1 + y_a2_proc_2 - tau = 0
 c14: y_a2_proc_0 <= 1
 c15: y_a2_proc_1 <= 0
 c16: y_a2_proc_2 <= 0
 c17: tau <= 0.001135073780
 c18: y_a3_proc_0 + y_a3_proc_1 + y_a3_proc_2 + y_a3_proc_3 - tau = 0
 c19: y_a3_proc_0 <= 1
 c20: y_a3_proc_1 <= 0
 c21: y_a3_proc_2 <= 0
 c22: y_a3_proc_3 <= 0
 c23: tau <= 0.001142857143
 c24: y_a4_proc_0 + y_a4_proc_2 + y_a4_proc_3 - tau = 0
 c25: y_a4_proc_0 <= 0
 c26: y_a4_proc_2 <= 1
 c27: y_a4_proc_3 <= 0
 c28: tau <= 0.002169197397
 c29: y_a5_proc_0 + y_a5_proc_2 + y_a5_proc_3 - tau = 0
 c30: y_a5_proc_0 <= 0
 c31: y_a5_proc_2 <= 1
 c32: y_a5_proc_3 <= 0
 c33: tau <= 0.001150747986
 c34: y_a6_proc_0 + y_a6_proc_1 + y_a6_proc_2 + y_a6_proc_3 - tau = 0
 c35: y_a6_proc_0 <= 0
 c36: y_a6_proc_1 <= 0
 c37: y_a6_proc_2 <= 1
 c38: y_a6_proc_3 <= 0
 c39: tau <= 0.001193317422
 c40: y_a7_proc_0 + y_a7_proc_1 + y_a7_proc_2 + y_a7_proc_3 - tau = 0
 c41: y_a7_proc_0 <= 1
 c42: y_a7_proc_1 <= 0
 c43: y_a7_proc_2 <= 0
 c44: y_a7_proc_3 <= 0
 c45: tau <= 0.000978473581
 c46: y_a8_proc_0 + y_a8_proc_1 + y_a8_proc_2 + y_a8_proc_3 - tau = 0
 c47: y_a8_proc_0 <= 1
 c48: y_a8_proc_1 <= 0
 c49: y_a8_proc_2 <= 0
 c50: y_a8_proc_3 <= 0
 c51: tau <= 0.001262626263
 c52: y_a9_proc_0 + y_a9_proc_2 + y_a9_proc_3 - tau = 0
 c53: y_a9_proc_0 <= 0
 c54: y_a9_proc_2 <= 0
 c55: y_a9_proc_3 <= 1
 c56: tau <= 0.000982318271
 c57: y_a10_proc_0 + y_a10_proc_2 + y_a10_proc_3 - tau = 0
 c58: y_a10_proc_0 <= 1
 c59: y_a10_proc_2 <= 0
 c60: y_a10_proc_3 <= 0
 c61: tau <= 0.001453488372
 c62: y_a11_proc_0 + y_a11_proc_1 + y_a11_proc_2 + y_a11_proc_3 - tau = 0
 c63: y_a11_proc_0 <= 0
 c64: y_a11_proc_1 <= 0
 c65: y_a11_proc_2 <= 1
 c66: y_a11_proc_3 <= 0
 c67: tau <= 0.001736111111
 c68: y_a12_proc_0 + y_a12_proc_1 + y_a12_proc_2 - tau = 0
 c69: y_a12_proc_0 <= 0
 c70: y_a12_proc_1 <= 1
 c71: y_a12_proc_2 <= 0
 c72: tau <= 0.000902527076
 c73: y_a13_proc_0 + y_a13_proc_1 + y_a13_proc_3 - tau = 0
 c74: y_a13_proc_0 <= 1
 c75: y_a13_proc_1 <= 0
 c76: y_a13_proc_3 <= 0
 c77: tau <= 0.000832639467
 c78: y_a14_proc_0 + y_a14_proc_2 + y_a14_proc_3 - tau = 0
 c79: y_a14_proc_0 <= 0
 c80: y_a14_proc_2 <= 1
 c81: y_a14_proc_3 <= 0
 c82: u_a1 - u_a0 - 1031 y_a0_proc_0 - 847 y_a0_proc_1 - 1158 y_a0_proc_2
      - 1173 y_a0_proc_3 >= 0
 c83: u_a1 - u_a2 - 1213 y_a2_proc_0 - 777 y_a2_proc_1 - 370 y_a2_proc_2 >= 0
 c84: u_a3 - u_a1 - 1009 y_a1_proc_0 - 756 y_a1_proc_1 - 1100 y_a1_proc_2 >= 0
 c85: u_a0 - u_a4 - 959 y_a4_proc_0 - 875 y_a4_proc_2 - 920 y_a4_proc_3 >= -2
 c86: u_a5 - u_a2 - 1213 y_a2_proc_0 - 777 y_a2_proc_1 - 370 y_a2_proc_2 >= 0
 c87: u_a4 - u_a6 - 577 y_a6_proc_0 - 840 y_a6_proc_1 - 869 y_a6_proc_2
      - 820 y_a6_proc_3 >= 0
 c88: u_a6 - u_a7 - 838 y_a7_proc_0 - 847 y_a7_proc_1 - 1292 y_a7_proc_2
      - 1286 y_a7_proc_3 >= -1
 c89: u_a2 - u_a8 - 1022 y_a8_proc_0 - 686 y_a8_proc_1 - 827 y_a8_proc_2
      - 1218 y_a8_proc_3 >= -1
 c90: u_a9 - u_a3 - 881 y_a3_proc_0 - 813 y_a3_proc_1 - 1268 y_a3_proc_2
      - 957 y_a3_proc_3 >= 0
 c91: u_a10 - u_a9 - 1232 y_a9_proc_0 - 971 y_a9_proc_2 - 792 y_a9_proc_3 >= -1
 c92: u_a11 - u_a10 - 1018 y_a10_proc_0 - 639 y_a10_proc_2 - 977 y_a10_proc_3
       >= -1
 c93: u_a12 - u_a6 - 577 y_a6_proc_0 - 840 y_a6_proc_1 - 869 y_a6_proc_2
      - 820 y_a6_proc_3 >= 0
 c94: u_a2 - u_a13 - 1108 y_a13_proc_0 - 540 y_a13_proc_1 - 981 y_a13_proc_3
       >= -1
 c95: u_a14 - u_a0 - 1031 y_a0_proc_0 - 847 y_a0_proc_1 - 1158 y_a0_proc_2
      - 1173 y_a0_proc_3 >= 0
 c96: u_a9 - u_a4 - 959 y_a4_proc_0 - 875 y_a4_proc_2 - 920 y_a4_proc_3 >= 0
 c97: u_a10 - u_a12 - 1235 y_a12_proc_0 - 576 y_a12_proc_1 - 1249 y_a12_proc_2
       >= 0
 c98: u_a0 - u_a1 - 1009 y_a1_proc_0 - 756 y_a1_proc_1 - 1100 y_a1_proc_2 >= -1
 c99: u_a4 - u_a3 - 881 y_a3_proc_0 - 813 y_a3_proc_1 - 1268 y_a3_proc_2
      - 957 y_a3_proc_3 >= 0
 c100: u_a0 - u_a11 - 1198 y_a11_proc_0 - 1188 y_a11_proc_1 - 688 y_a11_proc_2
       - 1142 y_a11_proc_3 >= 0
 c101: u_a5 - u_a3 - 881 y_a3_proc_0 - 813 y_a3_proc_1 - 1268 y_a3_proc_2
       - 957 y_a3_proc_3 >= 0
 c102: - 495 y_a5_proc_0 - 461 y_a5_proc_2 - 1125 y_a5_proc_3 >= -1
 c103: u_a13 - u_a9 - 1232 y_a9_proc_0 - 971 y_a9_proc_2 - 792 y_a9_proc_3 >= 0
 c104: u_a2 - u_a14 - 1092 y_a14_proc_0 - 1201 y_a14_proc_2 - 1224 y_a14_proc_3
        >= 0
 c105: u_a8 - u_a13 - 1108 y_a13_proc_0 - 540 y_a13_proc_1 - 981 y_a13_proc_3
        >= 0
 c106: u_a11 - u_a8 - 1022 y_a8_proc_0 - 686 y_a8_proc_1 - 827 y_a8_proc_2
       - 1218 y_a8_proc_3 >= -2
 c107: u_a7 - u_a12 - 1235 y_a12_proc_0 - 576 y_a12_proc_1 - 1249 y_a12_proc_2
        >= 0
 c108: u_a1 - u_a0 - 1031 y_a0_proc_0 >= -1292
 c109: u_a1 - u_a0 - 1158 y_a0_proc_2 >= -1292
 c110: u_a1 - u_a0 - 847 y_a0_proc_1 >= 0
 c111: u_a0 - u_a1 - 1009 y_a1_proc_0 >= -3877
 c112: u_a0 - u_a1 - 1100 y_a1_proc_2 >= -3877
 c113: u_a0 - u_a1 - 756 y_a1_proc_1 >= -2585
 c114: u_a2 - u_a0 - 1031 y_a0_proc_0 >= -2584
 c115: u_a2 - u_a0 - 1158 y_a0_proc_2 >= -3876
 c116: u_a2 - u_a0 - 847 y_a0_proc_1 >= -3876
 c117: u_a0 - u_a2 - 1213 y_a2_proc_0 >= -1
 c118: u_a0 - u_a2 - 370 y_a2_proc_2 >= -1293
 c119: u_a0 - u_a2 - 777 y_a2_proc_1 >= -1293
 c120: u_a3 - u_a0 - 1031 y_a0_proc_0 >= 0
 c121: u_a3 - u_a0 - 1158 y_a0_proc_2 >= -1292
 c122: u_a3 - u_a0 - 1173 y_a0_proc_3 >= 0
 c123: u_a3 - u_a0 - 847 y_a0_proc_1 >= -1292
 c124: u_a0 - u_a3 - 881 y_a3_proc_0 >= -2585
 c125: u_a0 - u_a3 - 1268 y_a3_proc_2 >= -3877
 c126: u_a0 - u_a3 - 957 y_a3_proc_3 >= -2585
 c127: u_a0 - u_a3 - 813 y_a3_proc_1 >= -3877
 c128: u_a4 - u_a0 - 1031 y_a0_proc_0 >= -1292
 c129: u_a4 - u_a0 - 1158 y_a0_proc_2 >= 0
 c130: u_a4 - u_a0 - 1173 y_a0_proc_3 >= 0
 c131: u_a0 - u_a4 - 959 y_a4_proc_0 >= -3877
 c132: u_a0 - u_a4 - 875 y_a4_proc_2 >= -2585
 c133: u_a0 - u_a4 - 920 y_a4_proc_3 >= -2585
 c134: u_a5 - u_a0 - 1031 y_a0_proc_0 >= 999997415
 c135: u_a5 - u_a0 - 1158 y_a0_proc_2 >= 999998707
 c136: u_a5 - u_a0 - 1173 y_a0_proc_3 >= 999998707
 c137: u_a0 - u_a5 - 495 y_a5_proc_0 >= -1000002584
 c138: u_a0 - u_a5 - 461 y_a5_proc_2 >= -1000001292
 c139: u_a0 - u_a5 - 1125 y_a5_proc_3 >= -1000001292
 c140: u_a6 - u_a0 - 1031 y_a0_proc_0 >= -3876
 c141: u_a6 - u_a0 - 1158 y_a0_proc_2 >= -2584
 c142: u_a6 - u_a0 - 1173 y_a0_proc_3 >= -2584
 c143: u_a6 - u_a0 - 847 y_a0_proc_1 >= -3876
 c144: u_a0 - u_a6 - 577 y_a6_proc_0 >= -1293
 c145: u_a0 - u_a6 - 869 y_a6_proc_2 >= -1
 c146: u_a0 - u_a6 - 820 y_a6_proc_3 >= -1
 c147: u_a0 - u_a6 - 840 y_a6_proc_1 >= -1293
 c148: u_a7 - u_a0 - 1031 y_a0_proc_0 >= 1
 c149: u_a7 - u_a0 - 1158 y_a0_proc_2 >= -1291
 c150: u_a7 - u_a0 - 1173 y_a0_proc_3 >= 1
 c151: u_a7 - u_a0 - 847 y_a0_proc_1 >= -1291
 c152: u_a0 - u_a7 - 838 y_a7_proc_0 >= -2586
 c153: u_a0 - u_a7 - 1292 y_a7_proc_2 >= -3878
 c154: u_a0 - u_a7 - 1286 y_a7_proc_3 >= -2586
 c155: u_a0 - u_a7 - 847 y_a7_proc_1 >= -3878
 c156: u_a8 - u_a0 - 1031 y_a0_proc_0 >= -2583
 c157: u_a8 - u_a0 - 1158 y_a0_proc_2 >= -3875
 c158: u_a8 - u_a0 - 1173 y_a0_proc_3 >= -2583
 c159: u_a8 - u_a0 - 847 y_a0_proc_1 >= -3875
 c160: u_a0 - u_a8 - 1022 y_a8_proc_0 >= -2
 c161: u_a0 - u_a8 - 827 y_a8_proc_2 >= -1294
 c162: u_a0 - u_a8 - 1218 y_a8_proc_3 >= -2
 c163: u_a0 - u_a8 - 686 y_a8_proc_1 >= -1294
 c164: u_a9 - u_a0 - 1031 y_a0_proc_0 >= -2583
 c165: u_a9 - u_a0 - 1158 y_a0_proc_2 >= -2583
 c166: u_a9 - u_a0 - 1173 y_a0_proc_3 >= 1
 c167: u_a0 - u_a9 - 1232 y_a9_proc_0 >= -2586
 c168: u_a0 - u_a9 - 971 y_a9_proc_2 >= -2586
 c169: u_a0 - u_a9 - 792 y_a9_proc_3 >= -2
 c170: u_a10 - u_a0 - 1031 y_a0_proc_0 >= -2584
 c171: u_a10 - u_a0 - 1158 y_a0_proc_2 >= -3876
 c172: u_a10 - u_a0 - 1173 y_a0_proc_3 >= -2584
 c173: u_a0 - u_a10 - 1018 y_a10_proc_0 >= -1
 c174: u_a0 - u_a10 - 639 y_a10_proc_2 >= -1293
 c175: u_a0 - u_a10 - 977 y_a10_proc_3 >= -1
 c176: u_a11 - u_a0 - 1031 y_a0_proc_0 >= -1293
 c177: u_a11 - u_a0 - 1158 y_a0_proc_2 >= -1
 c178: u_a11 - u_a0 - 1173 y_a0_proc_3 >= -1
 c179: u_a11 - u_a0 - 847 y_a0_proc_1 >= -1293
 c180: u_a0 - u_a11 - 1198 y_a11_proc_0 >= -3876
 c181: u_a0 - u_a11 - 688 y_a11_proc_2 >= -2584
 c182: u_a0 - u_a11 - 1142 y_a11_proc_3 >= -2584
 c183: u_a0 - u_a11 - 1188 y_a11_proc_1 >= -3876
 c184: u_a12 - u_a0 - 1031 y_a0_proc_0 >= -1292
 c185: u_a12 - u_a0 - 1158 y_a0_proc_2 >= -1292
 c186: u_a12 - u_a0 - 847 y_a0_proc_1 >= 0
 c187: u_a0 - u_a12 - 1235 y_a12_proc_0 >= -3877
 c188: u_a0 - u_a12 - 1249 y_a12_proc_2 >= -3877
 c189: u_a0 - u_a12 - 576 y_a12_proc_1 >= -2585
 c190: u_a13 - u_a0 - 1031 y_a0_proc_0 >= -2583
 c191: u_a13 - u_a0 - 1173 y_a0_proc_3 >= -2583
 c192: u_a13 - u_a0 - 847 y_a0_proc_1 >= -3875
 c193: u_a0 - u_a13 - 1108 y_a13_proc_0 >= -2
 c194: u_a0 - u_a13 - 981 y_a13_proc_3 >= -2
 c195: u_a0 - u_a13 - 540 y_a13_proc_1 >= -1294
 c196: u_a14 - u_a0 - 1031 y_a0_proc_0 >= -3876
 c197: u_a14 - u_a0 - 1158 y_a0_proc_2 >= -2584
 c198: u_a14 - u_a0 - 1173 y_a0_proc_3 >= -2584
 c199: u_a0 - u_a14 - 1092 y_a14_proc_0 >= -1293
 c200: u_a0 - u_a14 - 1201 y_a14_proc_2 >= -1
 c201: u_a0 - u_a14 - 1224 y_a14_proc_3 >= -1
 c202: u_a2 - u_a1 - 1009 y_a1_proc_0 >= -2585
 c203: u_a2 - u_a1 - 1100 y_a1_proc_2 >= -3877
 c204: u_a2 - u_a1 - 756 y_a1_proc_1 >= -2585
 c205: u_a1 - u_a2 - 1213 y_a2_proc_0 >= 0
 c206: u_a1 - u_a2 - 370 y_a2_proc_2 >= -1292
 c207: u_a1 - u_a2 - 777 y_a2_proc_1 >= 0
 c208: u_a3 - u_a1 - 1009 y_a1_proc_0 >= -1
 c209: u_a3 - u_a1 - 1100 y_a1_proc_2 >= -1293
 c210: u_a3 - u_a1 - 756 y_a1_proc_1 >= -1
 c211: u_a1 - u_a3 - 881 y_a3_proc_0 >= -2584
 c212: u_a1 - u_a3 - 1268 y_a3_proc_2 >= -3876
 c213: u_a1 - u_a3 - 813 y_a3_proc_1 >= -2584
 c214: u_a4 - u_a1 - 1009 y_a1_proc_0 >= -3876
 c215: u_a4 - u_a1 - 1100 y_a1_proc_2 >= -2584
 c216: u_a1 - u_a4 - 959 y_a4_proc_0 >= -1293
 c217: u_a1 - u_a4 - 875 y_a4_proc_2 >= -1
 c218: u_a5 - u_a1 - 1009 y_a1_proc_0 >= 999994831
 c219: u_a5 - u_a1 - 1100 y_a1_proc_2 >= 999996123
 c220: u_a1 - u_a5 - 495 y_a5_proc_0 >= -1000000000
 c221: u_a1 - u_a5 - 461 y_a5_proc_2 >= -999998708
 c222: u_a6 - u_a1 - 1009 y_a1_proc_0 >= -1293
 c223: u_a6 - u_a1 - 1100 y_a1_proc_2 >= -1
 c224: u_a6 - u_a1 - 756 y_a1_proc_1 >= -1
 c225: u_a1 - u_a6 - 577 y_a6_proc_0 >= -3876
 c226: u_a1 - u_a6 - 869 y_a6_proc_2 >= -2584
 c227: u_a1 - u_a6 - 840 y_a6_proc_1 >= -2584
 c228: u_a7 - u_a1 - 1009 y_a1_proc_0 >= -2584
 c229: u_a7 - u_a1 - 1100 y_a1_proc_2 >= -3876
 c230: u_a7 - u_a1 - 756 y_a1_proc_1 >= -2584
 c231: u_a1 - u_a7 - 838 y_a7_proc_0 >= -1
 c232: u_a1 - u_a7 - 1292 y_a7_proc_2 >= -1293
 c233: u_a1 - u_a7 - 847 y_a7_proc_1 >= -1
 c234: u_a8 - u_a1 - 1009 y_a1_proc_0 >= -2584
 c235: u_a8 - u_a1 - 1100 y_a1_proc_2 >= -3876
 c236: u_a8 - u_a1 - 756 y_a1_proc_1 >= -2584
 c237: u_a1 - u_a8 - 1022 y_a8_proc_0 >= -1
 c238: u_a1 - u_a8 - 827 y_a8_proc_2 >= -1293
 c239: u_a1 - u_a8 - 686 y_a8_proc_1 >= -1
 c240: u_a9 - u_a1 - 1009 y_a1_proc_0 >= -5168
 c241: u_a9 - u_a1 - 1100 y_a1_proc_2 >= -5168
 c242: u_a1 - u_a9 - 1232 y_a9_proc_0 >= -1
 c243: u_a1 - u_a9 - 971 y_a9_proc_2 >= -1
 c244: u_a10 - u_a1 - 1009 y_a1_proc_0 >= -1
 c245: u_a10 - u_a1 - 1100 y_a1_proc_2 >= -1293
 c246: u_a1 - u_a10 - 1018 y_a10_proc_0 >= -2584
 c247: u_a1 - u_a10 - 639 y_a10_proc_2 >= -3876
 c248: u_a11 - u_a1 - 1009 y_a1_proc_0 >= -3878
 c249: u_a11 - u_a1 - 1100 y_a1_proc_2 >= -2586
 c250: u_a11 - u_a1 - 756 y_a1_proc_1 >= -2586
 c251: u_a1 - u_a11 - 1198 y_a11_proc_0 >= -1291
 c252: u_a1 - u_a11 - 688 y_a11_proc_2 >= 1
 c253: u_a1 - u_a11 - 1188 y_a11_proc_1 >= 1
 c254: u_a12 - u_a1 - 1009 y_a1_proc_0 >= -2585
 c255: u_a12 - u_a1 - 1100 y_a1_proc_2 >= -2585
 c256: u_a12 - u_a1 - 756 y_a1_proc_1 >= -1
 c257: u_a1 - u_a12 - 1235 y_a12_proc_0 >= -2584
 c258: u_a1 - u_a12 - 1249 y_a12_proc_2 >= -2584
 c259: u_a1 - u_a12 - 576 y_a12_proc_1 >= 0
 c260: u_a13 - u_a1 - 1009 y_a1_proc_0 >= -2584
 c261: u_a13 - u_a1 - 756 y_a1_proc_1 >= -2584
 c262: u_a1 - u_a13 - 1108 y_a13_proc_0 >= -1
 c263: u_a1 - u_a13 - 540 y_a13_proc_1 >= -1
 c264: u_a14 - u_a1 - 1009 y_a1_proc_0 >= -3877
 c265: u_a14 - u_a1 - 1100 y_a1_proc_2 >= -2585
 c266: u_a1 - u_a14 - 1092 y_a14_proc_0 >= -1292
 c267: u_a1 - u_a14 - 1201 y_a14_proc_2 >= 0
 c268: u_a3 - u_a2 - 1213 y_a2_proc_0 >= 0
 c269: u_a3 - u_a2 - 370 y_a2_proc_2 >= -2584
 c270: u_a3 - u_a2 - 777 y_a2_proc_1 >= -2584
 c271: u_a2 - u_a3 - 881 y_a3_proc_0 >= -1
 c272: u_a2 - u_a3 - 1268 y_a3_proc_2 >= -2585
 c273: u_a2 - u_a3 - 813 y_a3_proc_1 >= -2585
 c274: u_a4 - u_a2 - 1213 y_a2_proc_0 >= -2584
 c275: u_a4 - u_a2 - 370 y_a2_proc_2 >= -2584
 c276: u_a2 - u_a4 - 959 y_a4_proc_0 >= -1
 c277: u_a2 - u_a4 - 875 y_a4_proc_2 >= -1
 c278: u_a5 - u_a2 - 1213 y_a2_proc_0 >= 999996123
 c279: u_a5 - u_a2 - 370 y_a2_proc_2 >= 999996123
 c280: u_a2 - u_a5 - 495 y_a5_proc_0 >= -999998708
 c281: u_a2 - u_a5 - 461 y_a5_proc_2 >= -999998708
 c282: u_a6 - u_a2 - 1213 y_a2_proc_0 >= -2585
 c283: u_a6 - u_a2 - 370 y_a2_proc_2 >= -2585
 c284: u_a6 - u_a2 - 777 y_a2_proc_1 >= -3877
 c285: u_a2 - u_a6 - 577 y_a6_proc_0 >= 0
 c286: u_a2 - u_a6 - 869 y_a6_proc_2 >= 0
 c287: u_a2 - u_a6 - 840 y_a6_proc_1 >= -1292
 c288: u_a7 - u_a2 - 1213 y_a2_proc_0 >= 0
 c289: u_a7 - u_a2 - 370 y_a2_proc_2 >= -2584
 c290: u_a7 - u_a2 - 777 y_a2_proc_1 >= -2584
 c291: u_a2 - u_a7 - 838 y_a7_proc_0 >= -1
 c292: u_a2 - u_a7 - 1292 y_a7_proc_2 >= -2585
 c293: u_a2 - u_a7 - 847 y_a7_proc_1 >= -2585
 c294: u_a8 - u_a2 - 1213 y_a2_proc_0 >= 0
 c295: u_a8 - u_a2 - 370 y_a2_proc_2 >= -2584
 c296: u_a8 - u_a2 - 777 y_a2_proc_1 >= -2584
 c297: u_a2 - u_a8 - 1022 y_a8_proc_0 >= -1
 c298: u_a2 - u_a8 - 827 y_a8_proc_2 >= -2585
 c299: u_a2 - u_a8 - 686 y_a8_proc_1 >= -2585
 c300: u_a9 - u_a2 - 1213 y_a2_proc_0 >= -2584
 c301: u_a9 - u_a2 - 370 y_a2_proc_2 >= -3876
 c302: u_a2 - u_a9 - 1232 y_a9_proc_0 >= -1
 c303: u_a2 - u_a9 - 971 y_a9_proc_2 >= -1293
 c304: u_a10 - u_a2 - 1213 y_a2_proc_0 >= -1
 c305: u_a10 - u_a2 - 370 y_a2_proc_2 >= -2585
 c306: u_a2 - u_a10 - 1018 y_a10_proc_0 >= 0
 c307: u_a2 - u_a10 - 639 y_a10_proc_2 >= -2584
 c308: u_a11 - u_a2 - 1213 y_a2_proc_0 >= -2585
 c309: u_a11 - u_a2 - 370 y_a2_proc_2 >= -2585
 c310: u_a11 - u_a2 - 777 y_a2_proc_1 >= -3877
 c311: u_a2 - u_a11 - 1198 y_a11_proc_0 >= 0
 c312: u_a2 - u_a11 - 688 y_a11_proc_2 >= 0
 c313: u_a2 - u_a11 - 1188 y_a11_proc_1 >= -1292
 c314: u_a12 - u_a2 - 1213 y_a2_proc_0 >= -2585
 c315: u_a12 - u_a2 - 370 y_a2_proc_2 >= -3877
 c316: u_a12 - u_a2 - 777 y_a2_proc_1 >= -2585
 c317: u_a2 - u_a12 - 1235 y_a12_proc_0 >= 0
 c318: u_a2 - u_a12 - 1249 y_a12_proc_2 >= -1292
 c319: u_a2 - u_a12 - 576 y_a12_proc_1 >= 0
 c320: u_a13 - u_a2 - 1213 y_a2_proc_0 >= 0
 c321: u_a13 - u_a2 - 777 y_a2_proc_1 >= -2584
 c322: u_a2 - u_a13 - 1108 y_a13_proc_0 >= -1
 c323: u_a2 - u_a13 - 540 y_a13_proc_1 >= -2585
 c324: u_a14 - u_a2 - 1213 y_a2_proc_0 >= -2585
 c325: u_a14 - u_a2 - 370 y_a2_proc_2 >= -2585
 c326: u_a2 - u_a14 - 1092 y_a14_proc_0 >= 0
 c327: u_a2 - u_a14 - 1201 y_a14_proc_2 >= 0
 c328: u_a4 - u_a3 - 881 y_a3_proc_0 >= -2584
 c329: u_a4 - u_a3 - 1268 y_a3_proc_2 >= -2584
 c330: u_a4 - u_a3 - 957 y_a3_proc_3 >= -3876
 c331: u_a3 - u_a4 - 959 y_a4_proc_0 >= -1
 c332: u_a3 - u_a4 - 875 y_a4_proc_2 >= -1
 c333: u_a3 - u_a4 - 920 y_a4_proc_3 >= -1293
 c334: u_a5 - u_a3 - 881 y_a3_proc_0 >= 999998707
 c335: u_a5 - u_a3 - 1268 y_a3_proc_2 >= 999998707
 c336: u_a5 - u_a3 - 957 y_a3_proc_3 >= 999997415
 c337: u_a3 - u_a5 - 495 y_a5_proc_0 >= -1000001292
 c338: u_a3 - u_a5 - 461 y_a5_proc_2 >= -1000001292
 c339: u_a3 - u_a5 - 1125 y_a5_proc_3 >= -1000002584
 c340: u_a6 - u_a3 - 881 y_a3_proc_0 >= -1
 c341: u_a6 - u_a3 - 1268 y_a3_proc_2 >= -1
 c342: u_a6 - u_a3 - 957 y_a3_proc_3 >= -1293
 c343: u_a6 - u_a3 - 813 y_a3_proc_1 >= -1293
 c344: u_a3 - u_a6 - 577 y_a6_proc_0 >= -2584
 c345: u_a3 - u_a6 - 869 y_a6_proc_2 >= -2584
 c346: u_a3 - u_a6 - 820 y_a6_proc_3 >= -3876
 c347: u_a3 - u_a6 - 840 y_a6_proc_1 >= -3876
 c348: u_a7 - u_a3 - 881 y_a3_proc_0 >= 0
 c349: u_a7 - u_a3 - 1268 y_a3_proc_2 >= -2584
 c350: u_a7 - u_a3 - 957 y_a3_proc_3 >= -2584
 c351: u_a7 - u_a3 - 813 y_a3_proc_1 >= -2584
 c352: u_a3 - u_a7 - 838 y_a7_proc_0 >= -1
 c353: u_a3 - u_a7 - 1292 y_a7_proc_2 >= -2585
 c354: u_a3 - u_a7 - 1286 y_a7_proc_3 >= -2585
 c355: u_a3 - u_a7 - 847 y_a7_proc_1 >= -2585
 c356: u_a8 - u_a3 - 881 y_a3_proc_0 >= 0
 c357: u_a8 - u_a3 - 1268 y_a3_proc_2 >= -2584
 c358: u_a8 - u_a3 - 957 y_a3_proc_3 >= -2584
 c359: u_a8 - u_a3 - 813 y_a3_proc_1 >= -2584
 c360: u_a3 - u_a8 - 1022 y_a8_proc_0 >= -1
 c361: u_a3 - u_a8 - 827 y_a8_proc_2 >= -2585
 c362: u_a3 - u_a8 - 1218 y_a8_proc_3 >= -2585
 c363: u_a3 - u_a8 - 686 y_a8_proc_1 >= -2585
 c364: u_a9 - u_a3 - 881 y_a3_proc_0 >= -2584
 c365: u_a9 - u_a3 - 1268 y_a3_proc_2 >= -3876
 c366: u_a9 - u_a3 - 957 y_a3_proc_3 >= -2584
 c367: u_a3 - u_a9 - 1232 y_a9_proc_0 >= -1
 c368: u_a3 - u_a9 - 971 y_a9_proc_2 >= -1293
 c369: u_a3 - u_a9 - 792 y_a9_proc_3 >= -1
 c370: u_a10 - u_a3 - 881 y_a3_proc_0 >= -1
 c371: u_a10 - u_a3 - 1268 y_a3_proc_2 >= -2585
 c372: u_a10 - u_a3 - 957 y_a3_proc_3 >= -2585
 c373: u_a3 - u_a10 - 1018 y_a10_proc_0 >= 0
 c374: u_a3 - u_a10 - 639 y_a10_proc_2 >= -2584
 c375: u_a3 - u_a10 - 977 y_a10_proc_3 >= -2584
 c376: u_a11 - u_a3 - 881 y_a3_proc_0 >= -2586
 c377: u_a11 - u_a3 - 1268 y_a3_proc_2 >= -2586
 c378: u_a11 - u_a3 - 957 y_a3_proc_3 >= -3878
 c379: u_a11 - u_a3 - 813 y_a3_proc_1 >= -3878
 c380: u_a3 - u_a11 - 1198 y_a11_proc_0 >= 1
 c381: u_a3 - u_a11 - 688 y_a11_proc_2 >= 1
 c382: u_a3 - u_a11 - 1142 y_a11_proc_3 >= -1291
 c383: u_a3 - u_a11 - 1188 y_a11_proc_1 >= -1291
 c384: u_a12 - u_a3 - 881 y_a3_proc_0 >= -2585
 c385: u_a12 - u_a3 - 1268 y_a3_proc_2 >= -3877
 c386: u_a12 - u_a3 - 813 y_a3_proc_1 >= -2585
 c387: u_a3 - u_a12 - 1235 y_a12_proc_0 >= 0
 c388: u_a3 - u_a12 - 1249 y_a12_proc_2 >= -1292
 c389: u_a3 - u_a12 - 576 y_a12_proc_1 >= 0
 c390: u_a13 - u_a3 - 881 y_a3_proc_0 >= 0
 c391: u_a13 - u_a3 - 957 y_a3_proc_3 >= -2584
 c392: u_a13 - u_a3 - 813 y_a3_proc_1 >= -2584
 c393: u_a3 - u_a13 - 1108 y_a13_proc_0 >= -1
 c394: u_a3 - u_a13 - 981 y_a13_proc_3 >= -2585
 c395: u_a3 - u_a13 - 540 y_a13_proc_1 >= -2585
 c396: u_a14 - u_a3 - 881 y_a3_proc_0 >= -2585
 c397: u_a14 - u_a3 - 1268 y_a3_proc_2 >= -2585
 c398: u_a14 - u_a3 - 957 y_a3_proc_3 >= -3877
 c399: u_a3 - u_a14 - 1092 y_a14_proc_0 >= 0
 c400: u_a3 - u_a14 - 1201 y_a14_proc_2 >= 0
 c401: u_a3 - u_a14 - 1224 y_a14_proc_3 >= -1292
 c402: u_a5 - u_a4 - 959 y_a4_proc_0 >= 999996123
 c403: u_a5 - u_a4 - 875 y_a4_proc_2 >= 999998707
 c404: u_a5 - u_a4 - 920 y_a4_proc_3 >= 999996123
 c405: u_a4 - u_a5 - 495 y_a5_proc_0 >= -1000001292
 c406: u_a4 - u_a5 - 461 y_a5_proc_2 >= -999998708
 c407: u_a4 - u_a5 - 1125 y_a5_proc_3 >= -1000001292
 c408: u_a6 - u_a4 - 959 y_a4_proc_0 >= -2585
 c409: u_a6 - u_a4 - 875 y_a4_proc_2 >= -1
 c410: u_a6 - u_a4 - 920 y_a4_proc_3 >= -2585
 c411: u_a4 - u_a6 - 577 y_a6_proc_0 >= -2584
 c412: u_a4 - u_a6 - 869 y_a6_proc_2 >= 0
 c413: u_a4 - u_a6 - 820 y_a6_proc_3 >= -2584
 c414: u_a7 - u_a4 - 959 y_a4_proc_0 >= 0
 c415: u_a7 - u_a4 - 875 y_a4_proc_2 >= 0
 c416: u_a7 - u_a4 - 920 y_a4_proc_3 >= -1292
 c417: u_a4 - u_a7 - 838 y_a7_proc_0 >= -2585
 c418: u_a4 - u_a7 - 1292 y_a7_proc_2 >= -2585
 c419: u_a4 - u_a7 - 1286 y_a7_proc_3 >= -3877
 c420: u_a8 - u_a4 - 959 y_a4_proc_0 >= -2584
 c421: u_a8 - u_a4 - 875 y_a4_proc_2 >= -2584
 c422: u_a8 - u_a4 - 920 y_a4_proc_3 >= -3876
 c423: u_a4 - u_a8 - 1022 y_a8_proc_0 >= -1
 c424: u_a4 - u_a8 - 827 y_a8_proc_2 >= -1
 c425: u_a4 - u_a8 - 1218 y_a8_proc_3 >= -1293
 c426: u_a9 - u_a4 - 959 y_a4_proc_0 >= -3876
 c427: u_a9 - u_a4 - 875 y_a4_proc_2 >= -2584
 c428: u_a9 - u_a4 - 920 y_a4_proc_3 >= -2584
 c429: u_a4 - u_a9 - 1232 y_a9_proc_0 >= -1293
 c430: u_a4 - u_a9 - 971 y_a9_proc_2 >= -1
 c431: u_a4 - u_a9 - 792 y_a9_proc_3 >= -1
 c432: u_a10 - u_a4 - 959 y_a4_proc_0 >= -1
 c433: u_a10 - u_a4 - 875 y_a4_proc_2 >= -1
 c434: u_a10 - u_a4 - 920 y_a4_proc_3 >= -1293
 c435: u_a4 - u_a10 - 1018 y_a10_proc_0 >= -2584
 c436: u_a4 - u_a10 - 639 y_a10_proc_2 >= -2584
 c437: u_a4 - u_a10 - 977 y_a10_proc_3 >= -3876
 c438: u_a11 - u_a4 - 959 y_a4_proc_0 >= -2586
 c439: u_a11 - u_a4 - 875 y_a4_proc_2 >= -2
 c440: u_a11 - u_a4 - 920 y_a4_proc_3 >= -2586
 c441: u_a4 - u_a11 - 1198 y_a11_proc_0 >= -2583
 c442: u_a4 - u_a11 - 688 y_a11_proc_2 >= 1
 c443: u_a4 - u_a11 - 1142 y_a11_proc_3 >= -2583
 c444: u_a12 - u_a4 - 959 y_a4_proc_0 >= -1293
 c445: u_a12 - u_a4 - 875 y_a4_proc_2 >= -1
 c446: u_a4 - u_a12 - 1235 y_a12_proc_0 >= -3876
 c447: u_a4 - u_a12 - 1249 y_a12_proc_2 >= -2584
 c448: u_a13 - u_a4 - 959 y_a4_proc_0 >= -2584
 c449: u_a13 - u_a4 - 920 y_a4_proc_3 >= -3876
 c450: u_a4 - u_a13 - 1108 y_a13_proc_0 >= -1
 c451: u_a4 - u_a13 - 981 y_a13_proc_3 >= -1293
 c452: u_a14 - u_a4 - 959 y_a4_proc_0 >= -2585
 c453: u_a14 - u_a4 - 875 y_a4_proc_2 >= -1
 c454: u_a14 - u_a4 - 920 y_a4_proc_3 >= -2585
 c455: u_a4 - u_a14 - 1092 y_a14_proc_0 >= -2584
 c456: u_a4 - u_a14 - 1201 y_a14_proc_2 >= 0
 c457: u_a4 - u_a14 - 1224 y_a14_proc_3 >= -2584
 c458: u_a6 - u_a5 - 495 y_a5_proc_0 >= -1000001292
 c459: u_a6 - u_a5 - 461 y_a5_proc_2 >= -999998708
 c460: u_a6 - u_a5 - 1125 y_a5_proc_3 >= -1000001292
 c461: u_a5 - u_a6 - 577 y_a6_proc_0 >= 999996123
 c462: u_a5 - u_a6 - 869 y_a6_proc_2 >= 999998707
 c463: u_a5 - u_a6 - 820 y_a6_proc_3 >= 999996123
 c464: u_a7 - u_a5 - 495 y_a5_proc_0 >= -1000001291
 c465: u_a7 - u_a5 - 461 y_a5_proc_2 >= -1000001291
 c466: u_a7 - u_a5 - 1125 y_a5_proc_3 >= -1000002583
 c467: u_a5 - u_a7 - 838 y_a7_proc_0 >= 999998706
 c468: u_a5 - u_a7 - 1292 y_a7_proc_2 >= 999998706
 c469: u_a5 - u_a7 - 1286 y_a7_proc_3 >= 999997414
 c470: u_a8 - u_a5 - 495 y_a5_proc_0 >= -999998707
 c471: u_a8 - u_a5 - 461 y_a5_proc_2 >= -999998707
 c472: u_a8 - u_a5 - 1125 y_a5_proc_3 >= -999999999
 c473: u_a5 - u_a8 - 1022 y_a8_proc_0 >= 999996122
 c474: u_a5 - u_a8 - 827 y_a8_proc_2 >= 999996122
 c475: u_a5 - u_a8 - 1218 y_a8_proc_3 >= 999994830
 c476: u_a9 - u_a5 - 495 y_a5_proc_0 >= -1000002584
 c477: u_a9 - u_a5 - 461 y_a5_proc_2 >= -1000001292
 c478: u_a9 - u_a5 - 1125 y_a5_proc_3 >= -1000001292
 c479: u_a5 - u_a9 - 1232 y_a9_proc_0 >= 999997415
 c480: u_a5 - u_a9 - 971 y_a9_proc_2 >= 999998707
 c481: u_a5 - u_a9 - 792 y_a9_proc_3 >= 999998707
 c482: u_a10 - u_a5 - 495 y_a5_proc_0 >= -999998708
 c483: u_a10 - u_a5 - 461 y_a5_proc_2 >= -999998708
 c484: u_a10 - u_a5 - 1125 y_a5_proc_3 >= -1000000000
 c485: u_a5 - u_a10 - 1018 y_a10_proc_0 >= 999996123
 c486: u_a5 - u_a10 - 639 y_a10_proc_2 >= 999996123
 c487: u_a5 - u_a10 - 977 y_a10_proc_3 >= 999994831
 c488: u_a11 - u_a5 - 495 y_a5_proc_0 >= -1000001293
 c489: u_a11 - u_a5 - 461 y_a5_proc_2 >= -999998709
 c490: u_a11 - u_a5 - 1125 y_a5_proc_3 >= -1000001293
 c491: u_a5 - u_a11 - 1198 y_a11_proc_0 >= 999996124
 c492: u_a5 - u_a11 - 688 y_a11_proc_2 >= 999998708
 c493: u_a5 - u_a11 - 1142 y_a11_proc_3 >= 999996124
 c494: u_a12 - u_a5 - 495 y_a5_proc_0 >= -1000002584
 c495: u_a12 - u_a5 - 461 y_a5_proc_2 >= -1000001292
 c496: u_a5 - u_a12 - 1235 y_a12_proc_0 >= 999997415
 c497: u_a5 - u_a12 - 1249 y_a12_proc_2 >= 999998707
 c498: u_a13 - u_a5 - 495 y_a5_proc_0 >= -999998707
 c499: u_a13 - u_a5 - 1125 y_a5_proc_3 >= -999999999
 c500: u_a5 - u_a13 - 1108 y_a13_proc_0 >= 999996122
 c501: u_a5 - u_a13 - 981 y_a13_proc_3 >= 999994830
 c502: u_a14 - u_a5 - 495 y_a5_proc_0 >= -1000001292
 c503: u_a14 - u_a5 - 461 y_a5_proc_2 >= -999998708
 c504: u_a14 - u_a5 - 1125 y_a5_proc_3 >= -1000001292
 c505: u_a5 - u_a14 - 1092 y_a14_proc_0 >= 999996123
 c506: u_a5 - u_a14 - 1201 y_a14_proc_2 >= 999998707
 c507: u_a5 - u_a14 - 1224 y_a14_proc_3 >= 999996123
 c508: u_a7 - u_a6 - 577 y_a6_proc_0 >= -2583
 c509: u_a7 - u_a6 - 869 y_a6_proc_2 >= -2583
 c510: u_a7 - u_a6 - 820 y_a6_proc_3 >= -3875
 c511: u_a7 - u_a6 - 840 y_a6_proc_1 >= -3875
 c512: u_a6 - u_a7 - 838 y_a7_proc_0 >= -2
 c513: u_a6 - u_a7 - 1292 y_a7_proc_2 >= -2
 c514: u_a6 - u_a7 - 1286 y_a7_proc_3 >= -1294
 c515: u_a6 - u_a7 - 847 y_a7_proc_1 >= -1294
 c516: u_a8 - u_a6 - 577 y_a6_proc_0 >= -2583
 c517: u_a8 - u_a6 - 869 y_a6_proc_2 >= -2583
 c518: u_a8 - u_a6 - 820 y_a6_proc_3 >= -3875
 c519: u_a8 - u_a6 - 840 y_a6_proc_1 >= -3875
 c520: u_a6 - u_a8 - 1022 y_a8_proc_0 >= -2
 c521: u_a6 - u_a8 - 827 y_a8_proc_2 >= -2
 c522: u_a6 - u_a8 - 1218 y_a8_proc_3 >= -1294
 c523: u_a6 - u_a8 - 686 y_a8_proc_1 >= -1294
 c524: u_a9 - u_a6 - 577 y_a6_proc_0 >= -1292
 c525: u_a9 - u_a6 - 869 y_a6_proc_2 >= 0
 c526: u_a9 - u_a6 - 820 y_a6_proc_3 >= 0
 c527: u_a6 - u_a9 - 1232 y_a9_proc_0 >= -3877
 c528: u_a6 - u_a9 - 971 y_a9_proc_2 >= -2585
 c529: u_a6 - u_a9 - 792 y_a9_proc_3 >= -2585
 c530: u_a10 - u_a6 - 577 y_a6_proc_0 >= -2584
 c531: u_a10 - u_a6 - 869 y_a6_proc_2 >= -2584
 c532: u_a10 - u_a6 - 820 y_a6_proc_3 >= -3876
 c533: u_a6 - u_a10 - 1018 y_a10_proc_0 >= -1
 c534: u_a6 - u_a10 - 639 y_a10_proc_2 >= -1
 c535: u_a6 - u_a10 - 977 y_a10_proc_3 >= -1293
 c536: u_a11 - u_a6 - 577 y_a6_proc_0 >= -2585
 c537: u_a11 - u_a6 - 869 y_a6_proc_2 >= -1
 c538: u_a11 - u_a6 - 820 y_a6_proc_3 >= -2585
 c539: u_a11 - u_a6 - 840 y_a6_proc_1 >= -2585
 c540: u_a6 - u_a11 - 1198 y_a11_proc_0 >= -2584
 c541: u_a6 - u_a11 - 688 y_a11_proc_2 >= 0
 c542: u_a6 - u_a11 - 1142 y_a11_proc_3 >= -2584
 c543: u_a6 - u_a11 - 1188 y_a11_proc_1 >= -2584
 c544: u_a12 - u_a6 - 577 y_a6_proc_0 >= -3876
 c545: u_a12 - u_a6 - 869 y_a6_proc_2 >= -2584
 c546: u_a12 - u_a6 - 840 y_a6_proc_1 >= -2584
 c547: u_a6 - u_a12 - 1235 y_a12_proc_0 >= -1293
 c548: u_a6 - u_a12 - 1249 y_a12_proc_2 >= -1
 c549: u_a6 - u_a12 - 576 y_a12_proc_1 >= -1
 c550: u_a13 - u_a6 - 577 y_a6_proc_0 >= -2583
 c551: u_a13 - u_a6 - 820 y_a6_proc_3 >= -3875
 c552: u_a13 - u_a6 - 840 y_a6_proc_1 >= -3875
 c553: u_a6 - u_a13 - 1108 y_a13_proc_0 >= -2
 c554: u_a6 - u_a13 - 981 y_a13_proc_3 >= -1294
 c555: u_a6 - u_a13 - 540 y_a13_proc_1 >= -1294
 c556: u_a14 - u_a6 - 577 y_a6_proc_0 >= -2584
 c557: u_a14 - u_a6 - 869 y_a6_proc_2 >= 0
 c558: u_a14 - u_a6 - 820 y_a6_proc_3 >= -2584
 c559: u_a6 - u_a14 - 1092 y_a14_proc_0 >= -2585
 c560: u_a6 - u_a14 - 1201 y_a14_proc_2 >= -1
 c561: u_a6 - u_a14 - 1224 y_a14_proc_3 >= -2585
 c562: u_a8 - u_a7 - 838 y_a7_proc_0 >= 0
 c563: u_a8 - u_a7 - 1292 y_a7_proc_2 >= -2584
 c564: u_a8 - u_a7 - 1286 y_a7_proc_3 >= -2584
 c565: u_a8 - u_a7 - 847 y_a7_proc_1 >= -2584
 c566: u_a7 - u_a8 - 1022 y_a8_proc_0 >= -1
 c567: u_a7 - u_a8 - 827 y_a8_proc_2 >= -2585
 c568: u_a7 - u_a8 - 1218 y_a8_proc_3 >= -2585
 c569: u_a7 - u_a8 - 686 y_a8_proc_1 >= -2585
 c570: u_a9 - u_a7 - 838 y_a7_proc_0 >= -2585
 c571: u_a9 - u_a7 - 1292 y_a7_proc_2 >= -3877
 c572: u_a9 - u_a7 - 1286 y_a7_proc_3 >= -2585
 c573: u_a7 - u_a9 - 1232 y_a9_proc_0 >= 0
 c574: u_a7 - u_a9 - 971 y_a9_proc_2 >= -1292
 c575: u_a7 - u_a9 - 792 y_a9_proc_3 >= 0
 c576: u_a10 - u_a7 - 838 y_a7_proc_0 >= -1
 c577: u_a10 - u_a7 - 1292 y_a7_proc_2 >= -2585
 c578: u_a10 - u_a7 - 1286 y_a7_proc_3 >= -2585
 c579: u_a7 - u_a10 - 1018 y_a10_proc_0 >= 0
 c580: u_a7 - u_a10 - 639 y_a10_proc_2 >= -2584
 c581: u_a7 - u_a10 - 977 y_a10_proc_3 >= -2584
 c582: u_a11 - u_a7 - 838 y_a7_proc_0 >= -2586
 c583: u_a11 - u_a7 - 1292 y_a7_proc_2 >= -2586
 c584: u_a11 - u_a7 - 1286 y_a7_proc_3 >= -3878
 c585: u_a11 - u_a7 - 847 y_a7_proc_1 >= -3878
 c586: u_a7 - u_a11 - 1198 y_a11_proc_0 >= 1
 c587: u_a7 - u_a11 - 688 y_a11_proc_2 >= 1
 c588: u_a7 - u_a11 - 1142 y_a11_proc_3 >= -1291
 c589: u_a7 - u_a11 - 1188 y_a11_proc_1 >= -1291
 c590: u_a12 - u_a7 - 838 y_a7_proc_0 >= -2585
 c591: u_a12 - u_a7 - 1292 y_a7_proc_2 >= -3877
 c592: u_a12 - u_a7 - 847 y_a7_proc_1 >= -2585
 c593: u_a7 - u_a12 - 1235 y_a12_proc_0 >= 0
 c594: u_a7 - u_a12 - 1249 y_a12_proc_2 >= -1292
 c595: u_a7 - u_a12 - 576 y_a12_proc_1 >= 0
 c596: u_a13 - u_a7 - 838 y_a7_proc_0 >= 0
 c597: u_a13 - u_a7 - 1286 y_a7_proc_3 >= -2584
 c598: u_a13 - u_a7 - 847 y_a7_proc_1 >= -2584
 c599: u_a7 - u_a13 - 1108 y_a13_proc_0 >= -1
 c600: u_a7 - u_a13 - 981 y_a13_proc_3 >= -2585
 c601: u_a7 - u_a13 - 540 y_a13_proc_1 >= -2585
 c602: u_a14 - u_a7 - 838 y_a7_proc_0 >= -2585
 c603: u_a14 - u_a7 - 1292 y_a7_proc_2 >= -2585
 c604: u_a14 - u_a7 - 1286 y_a7_proc_3 >= -3877
 c605: u_a7 - u_a14 - 1092 y_a14_proc_0 >= 0
 c606: u_a7 - u_a14 - 1201 y_a14_proc_2 >= 0
 c607: u_a7 - u_a14 - 1224 y_a14_proc_3 >= -1292
 c608: u_a9 - u_a8 - 1022 y_a8_proc_0 >= -2585
 c609: u_a9 - u_a8 - 827 y_a8_proc_2 >= -3877
 c610: u_a9 - u_a8 - 1218 y_a8_proc_3 >= -2585
 c611: u_a8 - u_a9 - 1232 y_a9_proc_0 >= 0
 c612: u_a8 - u_a9 - 971 y_a9_proc_2 >= -1292
 c613: u_a8 - u_a9 - 792 y_a9_proc_3 >= 0
 c614: u_a10 - u_a8 - 1022 y_a8_proc_0 >= -2
 c615: u_a10 - u_a8 - 827 y_a8_proc_2 >= -2586
 c616: u_a10 - u_a8 - 1218 y_a8_proc_3 >= -2586
 c617: u_a8 - u_a10 - 1018 y_a10_proc_0 >= 1
 c618: u_a8 - u_a10 - 639 y_a10_proc_2 >= -2583
 c619: u_a8 - u_a10 - 977 y_a10_proc_3 >= -2583
 c620: u_a11 - u_a8 - 1022 y_a8_proc_0 >= -2586
 c621: u_a11 - u_a8 - 827 y_a8_proc_2 >= -2586
 c622: u_a11 - u_a8 - 1218 y_a8_proc_3 >= -3878
 c623: u_a11 - u_a8 - 686 y_a8_proc_1 >= -3878
 c624: u_a8 - u_a11 - 1198 y_a11_proc_0 >= 1
 c625: u_a8 - u_a11 - 688 y_a11_proc_2 >= 1
 c626: u_a8 - u_a11 - 1142 y_a11_proc_3 >= -1291
 c627: u_a8 - u_a11 - 1188 y_a11_proc_1 >= -1291
 c628: u_a12 - u_a8 - 1022 y_a8_proc_0 >= -2586
 c629: u_a12 - u_a8 - 827 y_a8_proc_2 >= -3878
 c630: u_a12 - u_a8 - 686 y_a8_proc_1 >= -2586
 c631: u_a8 - u_a12 - 1235 y_a12_proc_0 >= 1
 c632: u_a8 - u_a12 - 1249 y_a12_proc_2 >= -1291
 c633: u_a8 - u_a12 - 576 y_a12_proc_1 >= 1
 c634: u_a13 - u_a8 - 1022 y_a8_proc_0 >= -1
 c635: u_a13 - u_a8 - 1218 y_a8_proc_3 >= -2585
 c636: u_a13 - u_a8 - 686 y_a8_proc_1 >= -2585
 c637: u_a8 - u_a13 - 1108 y_a13_proc_0 >= 0
 c638: u_a8 - u_a13 - 981 y_a13_proc_3 >= -2584
 c639: u_a8 - u_a13 - 540 y_a13_proc_1 >= -2584
 c640: u_a14 - u_a8 - 1022 y_a8_proc_0 >= -2585
 c641: u_a14 - u_a8 - 827 y_a8_proc_2 >= -2585
 c642: u_a14 - u_a8 - 1218 y_a8_proc_3 >= -3877
 c643: u_a8 - u_a14 - 1092 y_a14_proc_0 >= 0
 c644: u_a8 - u_a14 - 1201 y_a14_proc_2 >= 0
 c645: u_a8 - u_a14 - 1224 y_a14_proc_3 >= -1292
 c646: u_a10 - u_a9 - 1232 y_a9_proc_0 >= -1
 c647: u_a10 - u_a9 - 971 y_a9_proc_2 >= -1293
 c648: u_a10 - u_a9 - 792 y_a9_proc_3 >= -1
 c649: u_a9 - u_a10 - 1018 y_a10_proc_0 >= -2584
 c650: u_a9 - u_a10 - 639 y_a10_proc_2 >= -3876
 c651: u_a9 - u_a10 - 977 y_a10_proc_3 >= -2584
 c652: u_a11 - u_a9 - 1232 y_a9_proc_0 >= -3878
 c653: u_a11 - u_a9 - 971 y_a9_proc_2 >= -2586
 c654: u_a11 - u_a9 - 792 y_a9_proc_3 >= -2586
 c655: u_a9 - u_a11 - 1198 y_a11_proc_0 >= -1291
 c656: u_a9 - u_a11 - 688 y_a11_proc_2 >= 1
 c657: u_a9 - u_a11 - 1142 y_a11_proc_3 >= 1
 c658: u_a12 - u_a9 - 1232 y_a9_proc_0 >= -5169
 c659: u_a12 - u_a9 - 971 y_a9_proc_2 >= -5169
 c660: u_a9 - u_a12 - 1235 y_a12_proc_0 >= 0
 c661: u_a9 - u_a12 - 1249 y_a12_proc_2 >= 0
 c662: u_a13 - u_a9 - 1232 y_a9_proc_0 >= -2584
 c663: u_a13 - u_a9 - 792 y_a9_proc_3 >= -2584
 c664: u_a9 - u_a13 - 1108 y_a13_proc_0 >= -1
 c665: u_a9 - u_a13 - 981 y_a13_proc_3 >= -1
 c666: u_a14 - u_a9 - 1232 y_a9_proc_0 >= -1293
 c667: u_a14 - u_a9 - 971 y_a9_proc_2 >= -1
 c668: u_a14 - u_a9 - 792 y_a9_proc_3 >= -1
 c669: u_a9 - u_a14 - 1092 y_a14_proc_0 >= -3876
 c670: u_a9 - u_a14 - 1201 y_a14_proc_2 >= -2584
 c671: u_a9 - u_a14 - 1224 y_a14_proc_3 >= -2584
 c672: u_a11 - u_a10 - 1018 y_a10_proc_0 >= -2585
 c673: u_a11 - u_a10 - 639 y_a10_proc_2 >= -2585
 c674: u_a11 - u_a10 - 977 y_a10_proc_3 >= -3877
 c675: u_a10 - u_a11 - 1198 y_a11_proc_0 >= 0
 c676: u_a10 - u_a11 - 688 y_a11_proc_2 >= 0
 c677: u_a10 - u_a11 - 1142 y_a11_proc_3 >= -1292
 c678: u_a12 - u_a10 - 1018 y_a10_proc_0 >= -1
 c679: u_a12 - u_a10 - 639 y_a10_proc_2 >= -1293
 c680: u_a10 - u_a12 - 1235 y_a12_proc_0 >= -2584
 c681: u_a10 - u_a12 - 1249 y_a12_proc_2 >= -3876
 c682: u_a13 - u_a10 - 1018 y_a10_proc_0 >= 1
 c683: u_a13 - u_a10 - 977 y_a10_proc_3 >= -2583
 c684: u_a10 - u_a13 - 1108 y_a13_proc_0 >= -2
 c685: u_a10 - u_a13 - 981 y_a13_proc_3 >= -2586
 c686: u_a14 - u_a10 - 1018 y_a10_proc_0 >= 0
 c687: u_a14 - u_a10 - 639 y_a10_proc_2 >= 0
 c688: u_a14 - u_a10 - 977 y_a10_proc_3 >= -1292
 c689: u_a10 - u_a14 - 1092 y_a14_proc_0 >= -2585
 c690: u_a10 - u_a14 - 1201 y_a14_proc_2 >= -2585
 c691: u_a10 - u_a14 - 1224 y_a14_proc_3 >= -3877
 c692: u_a12 - u_a11 - 1198 y_a11_proc_0 >= -3876
 c693: u_a12 - u_a11 - 688 y_a11_proc_2 >= -2584
 c694: u_a12 - u_a11 - 1188 y_a11_proc_1 >= -2584
 c695: u_a11 - u_a12 - 1235 y_a12_proc_0 >= -1293
 c696: u_a11 - u_a12 - 1249 y_a12_proc_2 >= -1
 c697: u_a11 - u_a12 - 576 y_a12_proc_1 >= -1
 c698: u_a13 - u_a11 - 1198 y_a11_proc_0 >= 1
 c699: u_a13 - u_a11 - 1142 y_a11_proc_3 >= -1291
 c700: u_a13 - u_a11 - 1188 y_a11_proc_1 >= -1291
 c701: u_a11 - u_a13 - 1108 y_a13_proc_0 >= -2586
 c702: u_a11 - u_a13 - 981 y_a13_proc_3 >= -3878
 c703: u_a11 - u_a13 - 540 y_a13_proc_1 >= -3878
 c704: u_a14 - u_a11 - 1198 y_a11_proc_0 >= -2584
 c705: u_a14 - u_a11 - 688 y_a11_proc_2 >= 0
 c706: u_a14 - u_a11 - 1142 y_a11_proc_3 >= -2584
 c707: u_a11 - u_a14 - 1092 y_a14_proc_0 >= -2585
 c708: u_a11 - u_a14 - 1201 y_a14_proc_2 >= -1
 c709: u_a11 - u_a14 - 1224 y_a14_proc_3 >= -2585
 c710: u_a13 - u_a12 - 1235 y_a12_proc_0 >= 1
 c711: u_a13 - u_a12 - 576 y_a12_proc_1 >= 1
 c712: u_a12 - u_a13 - 1108 y_a13_proc_0 >= -2586
 c713: u_a12 - u_a13 - 540 y_a13_proc_1 >= -2586
 c714: u_a14 - u_a12 - 1235 y_a12_proc_0 >= -3876
 c715: u_a14 - u_a12 - 1249 y_a12_proc_2 >= -2584
 c716: u_a12 - u_a14 - 1092 y_a14_proc_0 >= -1293
 c717: u_a12 - u_a14 - 1201 y_a14_proc_2 >= -1
 c718: u_a14 - u_a13 - 1108 y_a13_proc_0 >= -2585
 c719: u_a14 - u_a13 - 981 y_a13_proc_3 >= -3877
 c720: u_a13 - u_a14 - 1092 y_a14_proc_0 >= 0
 c721: u_a13 - u_a14 - 1224 y_a14_proc_3 >= -1292

Bounds
End
